(set-info :smt-lib-version 2.6)
(set-info :category "crafted")
(set-logic QF_FF)
(define-sort FF0 () (_ FiniteField 52435875175126190479447740508185965837690552500527637822603658699938581184513))
(declare-fun a () Bool)
(declare-fun b () Bool)
(declare-fun d () Bool)
(declare-fun c () Bool)
(declare-fun return_n2 () FF0)
(declare-fun mul_n43 () FF0)
(declare-fun mul_n90 () FF0)
(declare-fun mul_n62 () FF0)
(declare-fun mul_n89 () FF0)
(declare-fun mul_n85 () FF0)
(declare-fun mul_n88 () FF0)
(declare-fun mul_n49 () FF0)
(declare-fun mul_n87 () FF0)
(declare-fun mul_n35 () FF0)
(declare-fun mul_n86 () FF0)
(declare-fun mul_n34 () FF0)
(declare-fun mul_n50 () FF0)
(declare-fun mul_n33 () FF0)
(declare-fun a_n4 () FF0)
(declare-fun mul_n51 () FF0)
(declare-fun d_n0 () FF0)
(declare-fun mul_n23 () FF0)
(declare-fun mul_n71 () FF0)
(declare-fun mul_n52 () FF0)
(declare-fun mul_n38 () FF0)
(declare-fun mul_n46 () FF0)
(declare-fun mul_n9 () FF0)
(declare-fun mul_n84 () FF0)
(declare-fun mul_n83 () FF0)
(declare-fun mul_n57 () FF0)
(declare-fun mul_n82 () FF0)
(declare-fun mul_n39 () FF0)
(declare-fun mul_n81 () FF0)
(declare-fun mul_n22 () FF0)
(declare-fun mul_n64 () FF0)
(declare-fun mul_n80 () FF0)
(declare-fun mul_n79 () FF0)
(declare-fun mul_n27 () FF0)
(declare-fun mul_n41 () FF0)
(declare-fun mul_n40 () FF0)
(declare-fun mul_n78 () FF0)
(declare-fun mul_n65 () FF0)
(declare-fun mul_n77 () FF0)
(declare-fun mul_n25 () FF0)
(declare-fun mul_n63 () FF0)
(declare-fun mul_n10 () FF0)
(declare-fun mul_n26 () FF0)
(declare-fun mul_n58 () FF0)
(declare-fun b_n3 () FF0)
(declare-fun mul_n76 () FF0)
(declare-fun mul_n70 () FF0)
(declare-fun mul_n75 () FF0)
(declare-fun mul_n72 () FF0)
(declare-fun mul_n74 () FF0)
(declare-fun mul_n73 () FF0)
(declare-fun mul_n44 () FF0)
(declare-fun mul_n54 () FF0)
(declare-fun mul_n69 () FF0)
(declare-fun mul_n68 () FF0)
(declare-fun mul_n67 () FF0)
(declare-fun mul_n66 () FF0)
(declare-fun mul_n29 () FF0)
(declare-fun mul_n53 () FF0)
(declare-fun mul_n7 () FF0)
(declare-fun mul_n61 () FF0)
(declare-fun mul_n24 () FF0)
(declare-fun mul_n36 () FF0)
(declare-fun mul_n60 () FF0)
(declare-fun mul_n59 () FF0)
(declare-fun mul_n42 () FF0)
(declare-fun mul_n56 () FF0)
(declare-fun mul_n55 () FF0)
(declare-fun mul_n11 () FF0)
(declare-fun mul_n45 () FF0)
(declare-fun mul_n48 () FF0)
(declare-fun mul_n47 () FF0)
(declare-fun mul_n37 () FF0)
(declare-fun mul_n32 () FF0)
(declare-fun mul_n31 () FF0)
(declare-fun mul_n21 () FF0)
(declare-fun mul_n30 () FF0)
(declare-fun mul_n20 () FF0)
(declare-fun mul_n19 () FF0)
(declare-fun mul_n18 () FF0)
(declare-fun mul_n17 () FF0)
(declare-fun mul_n16 () FF0)
(declare-fun mul_n15 () FF0)
(declare-fun mul_n14 () FF0)
(declare-fun c_n1 () FF0)
(declare-fun mul_n13 () FF0)
(declare-fun mul_n12 () FF0)
(declare-fun mul_n6 () FF0)
(declare-fun mul_n5 () FF0)
(assert 
  (let ((let0 a))
  (let ((let1 b))
  (let ((let2 d))
  (let ((let3 c))
  (let ((let4 (and let0 let3 let2 let0)))
  (let ((let5 (ite let4 let1 let1)))
  (let ((let6 (or let5 let0)))
  (let ((let7 (ite let3 let4 let5)))
  (let ((let8 (=> let2 let1)))
  (let ((let9 (and let6 let8 let3 let3 let7 let8 let4 let8 let7 let6 let4)))
  (let ((let10 (=> let9 let5)))
  (let ((let11 (=> let7 let10)))
  (let ((let12 (= let11 let6)))
  (let ((let13 (= let5 let7)))
  (let ((let14 (ite let2 let9 let13)))
  (let ((let15 (not let14)))
  (let ((let16 (or let14 let9)))
  (let ((let17 (ite let16 let16 let16)))
  (let ((let18 (or let13 let17)))
  (let ((let19 (or let13 let14 let9 let14 let18)))
  (let ((let20 (= let19 let2)))
  (let ((let21 (= let20 let20)))
  (let ((let22 (and let21 let15)))
  (let ((let23 (= let22 let12)))
  (let ((let24 (not let18)))
  (let ((let25 (not let17)))
  (let ((let26 (= let6 let19)))
  (let ((let27 (not let26)))
  (let ((let28 (not let10)))
  (let ((let29 (or let28 let27)))
  (let ((let30 (= let29 let25)))
  (let ((let31 (= let30 let17)))
  (let ((let32 (not let31)))
  (let ((let33 (=> let32 let24)))
  (let ((let34 (=> let33 let23)))
  (let ((let35 (ite let26 let2 let0)))
  (let ((let36 (not let35)))
  (let ((let37 (= let36 let8)))
  (let ((let38 (ite let18 let19 let26)))
  (let ((let39 (not let38)))
  (let ((let40 (and let25 let24 let27 let39)))
  (let ((let41 (=> let40 let37)))
  (let ((let42 (= let41 let21)))
  (let ((let43 (not let24)))
  (let ((let44 (or let43 let43)))
  (let ((let45 (not let43)))
  (let ((let46 (= let45 let44)))
  (let ((let47 (or let1 let35)))
  (let ((let48 (ite let41 let47 let46)))
  (let ((let49 (and let48 let42 let33)))
  (let ((let50 (= let38 let16)))
  (let ((let51 (not let30)))
  (let ((let52 (or let32 let51 let12 let50)))
  (let ((let53 (not let52)))
  (let ((let54 (and let53 let49)))
  (let ((let55 (= let50 let15)))
  (let ((let56 (ite let55 let22 let28)))
  (let ((let57 (=> let12 let52)))
  (let ((let58 (or let4 let46 let51 let35 let44 let47)))
  (let ((let59 (= let44 let11)))
  (let ((let60 (ite let31 let36 let59)))
  (let ((let61 (=> let29 let39)))
  (let ((let62 (or let51 let61 let60)))
  (let ((let63 (and let62 let58 let55 let57 let31 let21 let56 let29 let49 let41 let38)))
  (let ((let64 (not let40)))
  (let ((let65 (= let0 let42)))
  (let ((let66 (not let59)))
  (let ((let67 (and let66 let65 let64 let63 let54 let34)))
  (let ((let68 return_n2))
  (let ((let69 (as ff1 FF0)))
  (let ((let70 (= let69 let68)))
  (let ((let71 (= let70 let67)))
  (let ((let72 (as ff0 FF0)))
  (let ((let73 (= let72 let68)))
  (let ((let74 (or let70 let73)))
  (let ((let75 (and let74 let71)))
  (let ((let76 (as ff52435875175126190479447740508185965837690552500527637822603658699938581184512 FF0)))
  (let ((let77 mul_n43))
  (let ((let78 (ff.mul let77 let76)))
  (let ((let79 (ff.add let78 let69)))
  (let ((let80 mul_n90))
  (let ((let81 (ff.mul let80 let79)))
  (let ((let82 (= let81 let68)))
  (let ((let83 mul_n62))
  (let ((let84 mul_n89))
  (let ((let85 (ff.mul let84 let83)))
  (let ((let86 (= let85 let80)))
  (let ((let87 mul_n85))
  (let ((let88 mul_n88))
  (let ((let89 (ff.mul let88 let87)))
  (let ((let90 (= let89 let84)))
  (let ((let91 mul_n49))
  (let ((let92 (ff.mul let91 let76)))
  (let ((let93 (ff.add let92 let69)))
  (let ((let94 mul_n87))
  (let ((let95 (ff.mul let94 let93)))
  (let ((let96 (= let95 let88)))
  (let ((let97 (as ff2 FF0)))
  (let ((let98 mul_n35))
  (let ((let99 mul_n86))
  (let ((let100 (as ff52435875175126190479447740508185965837690552500527637822603658699938581184511 FF0)))
  (let ((let101 mul_n34))
  (let ((let102 (ff.mul let101 let100)))
  (let ((let103 mul_n50))
  (let ((let104 (ff.mul let103 let76)))
  (let ((let105 mul_n33))
  (let ((let106 (ff.mul let105 let100)))
  (let ((let107 a_n4))
  (let ((let108 (ff.mul let107 let76)))
  (let ((let109 mul_n51))
  (let ((let110 (ff.mul let109 let76)))
  (let ((let111 d_n0))
  (let ((let112 (ff.mul let111 let97)))
  (let ((let113 (ff.add let112 let110 let108 let106 let104 let102 let99 let98 let97)))
  (let ((let114 mul_n23))
  (let ((let115 (ff.mul let114 let76)))
  (let ((let116 mul_n71))
  (let ((let117 (ff.mul let116 let76)))
  (let ((let118 mul_n52))
  (let ((let119 (ff.mul let118 let76)))
  (let ((let120 (ff.add let119 let117 let115 let97)))
  (let ((let121 (ff.mul let120 let113)))
  (let ((let122 (= let121 let94)))
  (let ((let123 (ff.mul let105 let97)))
  (let ((let124 (ff.mul let101 let97)))
  (let ((let125 (ff.mul let98 let76)))
  (let ((let126 (ff.mul let111 let100)))
  (let ((let127 (ff.add let126 let125 let103 let124 let123 let109 let76)))
  (let ((let128 (ff.mul let107 let97)))
  (let ((let129 (ff.mul let128 let127)))
  (let ((let130 (= let129 let99)))
  (let ((let131 mul_n38))
  (let ((let132 mul_n46))
  (let ((let133 mul_n9))
  (let ((let134 (ff.add let105 let133 let132 let131 let76)))
  (let ((let135 mul_n84))
  (let ((let136 (ff.mul let135 let134)))
  (let ((let137 (= let136 let87)))
  (let ((let138 (ff.add let104 let69)))
  (let ((let139 mul_n83))
  (let ((let140 (ff.mul let139 let138)))
  (let ((let141 (= let140 let135)))
  (let ((let142 mul_n57))
  (let ((let143 mul_n82))
  (let ((let144 (ff.mul let143 let142)))
  (let ((let145 (= let144 let139)))
  (let ((let146 mul_n39))
  (let ((let147 (ff.mul let146 let76)))
  (let ((let148 (ff.add let147 let69)))
  (let ((let149 mul_n81))
  (let ((let150 (ff.mul let149 let148)))
  (let ((let151 (= let150 let143)))
  (let ((let152 mul_n22))
  (let ((let153 mul_n64))
  (let ((let154 (ff.add let153 let152)))
  (let ((let155 mul_n80))
  (let ((let156 (ff.mul let155 let154)))
  (let ((let157 (= let156 let149)))
  (let ((let158 (ff.add let112 let102 let106 let98 let69)))
  (let ((let159 mul_n79))
  (let ((let160 (ff.mul let159 let158)))
  (let ((let161 (= let160 let155)))
  (let ((let162 mul_n27))
  (let ((let163 (ff.mul let162 let97)))
  (let ((let164 mul_n41))
  (let ((let165 mul_n40))
  (let ((let166 (ff.mul let165 let76)))
  (let ((let167 (ff.add let166 let147 let164 let163)))
  (let ((let168 mul_n78))
  (let ((let169 (ff.mul let168 let167)))
  (let ((let170 (= let169 let159)))
  (let ((let171 mul_n65))
  (let ((let172 (ff.mul let171 let76)))
  (let ((let173 (ff.add let172 let69)))
  (let ((let174 mul_n77))
  (let ((let175 (ff.mul let174 let173)))
  (let ((let176 (= let175 let168)))
  (let ((let177 mul_n25))
  (let ((let178 mul_n63))
  (let ((let179 (ff.mul let162 let76)))
  (let ((let180 mul_n10))
  (let ((let181 (ff.mul let180 let76)))
  (let ((let182 mul_n26))
  (let ((let183 mul_n58))
  (let ((let184 (ff.mul let183 let76)))
  (let ((let185 b_n3))
  (let ((let186 (ff.mul let185 let100)))
  (let ((let187 (ff.add let186 let184 let182 let181 let105 let132 let179 let178 let133 let131 let177)))
  (let ((let188 mul_n76))
  (let ((let189 (ff.mul let188 let187)))
  (let ((let190 (= let189 let174)))
  (let ((let191 mul_n70))
  (let ((let192 (ff.mul let191 let76)))
  (let ((let193 (ff.add let192 let69)))
  (let ((let194 mul_n75))
  (let ((let195 (ff.mul let194 let76)))
  (let ((let196 (ff.add let195 let69)))
  (let ((let197 (ff.mul let196 let193)))
  (let ((let198 (= let197 let188)))
  (let ((let199 mul_n72))
  (let ((let200 (ff.mul let199 let76)))
  (let ((let201 (ff.add let200 let115 let119 let117 let97)))
  (let ((let202 mul_n74))
  (let ((let203 (ff.mul let202 let201)))
  (let ((let204 (= let203 let194)))
  (let ((let205 mul_n73))
  (let ((let206 (ff.add let165 let146 let179)))
  (let ((let207 (ff.mul let206 let205)))
  (let ((let208 (= let207 let202)))
  (let ((let209 (ff.add let132 let105 let131 let133 let76)))
  (let ((let210 (ff.mul let148 let209)))
  (let ((let211 (= let210 let205)))
  (let ((let212 mul_n44))
  (let ((let213 (ff.mul let212 let76)))
  (let ((let214 (ff.add let115 let213 let108 let119 let117 let97)))
  (let ((let215 (ff.mul let167 let214)))
  (let ((let216 (= let215 let199)))
  (let ((let217 (ff.add let115 let69)))
  (let ((let218 (ff.mul let118 let100)))
  (let ((let219 (ff.add let218 let97)))
  (let ((let220 (ff.mul let219 let217)))
  (let ((let221 (= let220 let116)))
  (let ((let222 mul_n54))
  (let ((let223 mul_n69))
  (let ((let224 (ff.mul let223 let222)))
  (let ((let225 (= let224 let191)))
  (let ((let226 mul_n68))
  (let ((let227 (ff.mul let226 let118)))
  (let ((let228 (= let227 let223)))
  (let ((let229 (ff.add let213 let108 let69)))
  (let ((let230 mul_n67))
  (let ((let231 (ff.mul let230 let229)))
  (let ((let232 (= let231 let226)))
  (let ((let233 mul_n66))
  (let ((let234 (ff.mul let233 let206)))
  (let ((let235 (= let234 let230)))
  (let ((let236 mul_n29))
  (let ((let237 mul_n53))
  (let ((let238 (ff.mul let237 let76)))
  (let ((let239 (ff.add let119 let238 let236 let69)))
  (let ((let240 mul_n7))
  (let ((let241 (ff.mul let240 let76)))
  (let ((let242 (ff.add let241 let69)))
  (let ((let243 (ff.mul let242 let239)))
  (let ((let244 (= let243 let233)))
  (let ((let245 mul_n61))
  (let ((let246 mul_n24))
  (let ((let247 (ff.add let246 let133 let114 let76)))
  (let ((let248 (ff.mul let247 let245)))
  (let ((let249 (= let248 let171)))
  (let ((let250 (ff.mul let152 let76)))
  (let ((let251 mul_n36))
  (let ((let252 (ff.add let251 let250)))
  (let ((let253 (ff.mul let187 let252)))
  (let ((let254 (= let253 let153)))
  (let ((let255 (ff.mul let185 let97)))
  (let ((let256 (ff.mul let177 let76)))
  (let ((let257 (ff.mul let182 let76)))
  (let ((let258 (ff.add let257 let180 let256 let255)))
  (let ((let259 (ff.mul let132 let100)))
  (let ((let260 (ff.mul let133 let100)))
  (let ((let261 (ff.mul let183 let97)))
  (let ((let262 (ff.mul let131 let100)))
  (let ((let263 (ff.add let262 let163 let261 let106 let260 let259 let97)))
  (let ((let264 (ff.mul let263 let258)))
  (let ((let265 (= let264 let178)))
  (let ((let266 (ff.mul let245 let142)))
  (let ((let267 (= let266 let83)))
  (let ((let268 (ff.add let133 let132 let184 let105 let131 let179)))
  (let ((let269 mul_n60))
  (let ((let270 (ff.mul let269 let268)))
  (let ((let271 (= let270 let245)))
  (let ((let272 (ff.mul let133 let76)))
  (let ((let273 (ff.mul let246 let76)))
  (let ((let274 (ff.add let273 let272 let115 let97)))
  (let ((let275 mul_n59))
  (let ((let276 (ff.mul let275 let274)))
  (let ((let277 (= let276 let269)))
  (let ((let278 (ff.mul let167 let206)))
  (let ((let279 (= let278 let275)))
  (let ((let280 (ff.add let179 let69)))
  (let ((let281 (ff.mul let131 let97)))
  (let ((let282 (ff.mul let132 let97)))
  (let ((let283 (ff.mul let133 let97)))
  (let ((let284 (ff.add let123 let283 let282 let281 let100)))
  (let ((let285 (ff.mul let284 let280)))
  (let ((let286 (= let285 let183)))
  (let ((let287 mul_n42))
  (let ((let288 (ff.mul let287 let76)))
  (let ((let289 (ff.add let288 let69)))
  (let ((let290 mul_n56))
  (let ((let291 (ff.mul let290 let289)))
  (let ((let292 (= let291 let142)))
  (let ((let293 mul_n55))
  (let ((let294 (ff.mul let236 let76)))
  (let ((let295 (ff.add let237 let294 let293 let118)))
  (let ((let296 (ff.mul let295 let127)))
  (let ((let297 (= let296 let290)))
  (let ((let298 (ff.mul let222 let76)))
  (let ((let299 (ff.add let238 let236 let119 let298 let69)))
  (let ((let300 (ff.mul let138 let299)))
  (let ((let301 (= let300 let293)))
  (let ((let302 (ff.mul let185 let76)))
  (let ((let303 (ff.add let302 let69)))
  (let ((let304 (ff.mul let303 let229)))
  (let ((let305 (= let304 let222)))
  (let ((let306 (ff.add let119 let69)))
  (let ((let307 (ff.mul let236 let97)))
  (let ((let308 (ff.mul let307 let306)))
  (let ((let309 (= let308 let237)))
  (let ((let310 (ff.mul let236 let236)))
  (let ((let311 (= let310 let118)))
  (let ((let312 (ff.mul let103 let100)))
  (let ((let313 (ff.add let312 let97)))
  (let ((let314 (ff.mul let313 let158)))
  (let ((let315 (= let314 let109)))
  (let ((let316 mul_n11))
  (let ((let317 (ff.mul let316 let76)))
  (let ((let318 mul_n45))
  (let ((let319 (ff.mul let318 let76)))
  (let ((let320 (ff.add let319 let213 let108 let317 let97)))
  (let ((let321 (ff.mul let91 let320)))
  (let ((let322 (= let321 let103)))
  (let ((let323 (ff.mul let132 let76)))
  (let ((let324 (ff.mul let105 let76)))
  (let ((let325 (ff.mul let131 let76)))
  (let ((let326 (ff.add let325 let324 let272 let323 let97)))
  (let ((let327 mul_n48))
  (let ((let328 (ff.mul let327 let326)))
  (let ((let329 (= let328 let91)))
  (let ((let330 mul_n47))
  (let ((let331 (ff.mul let162 let236)))
  (let ((let332 (= let331 let330)))
  (let ((let333 (ff.add let106 let272 let325 let97)))
  (let ((let334 (ff.add let294 let69)))
  (let ((let335 (ff.mul let334 let333)))
  (let ((let336 (= let335 let132)))
  (let ((let337 (ff.add let317 let69)))
  (let ((let338 (ff.mul let107 let100)))
  (let ((let339 (ff.mul let212 let100)))
  (let ((let340 (ff.add let339 let338 let97)))
  (let ((let341 (ff.mul let340 let337)))
  (let ((let342 (= let341 let318)))
  (let ((let343 (ff.add let111 let108)))
  (let ((let344 (ff.add let133 let131 let105 let76)))
  (let ((let345 (ff.mul let344 let343)))
  (let ((let346 (= let345 let212)))
  (let ((let347 mul_n37))
  (let ((let348 (ff.mul let347 let76)))
  (let ((let349 (ff.add let246 let348 let114 let251 let133 let76)))
  (let ((let350 (ff.mul let289 let349)))
  (let ((let351 (= let350 let77)))
  (let ((let352 (ff.mul let162 let100)))
  (let ((let353 (ff.mul let164 let76)))
  (let ((let354 (ff.add let165 let146 let353 let352 let69)))
  (let ((let355 (ff.mul let354 let334)))
  (let ((let356 (= let355 let287)))
  (let ((let357 (ff.mul let146 let97)))
  (let ((let358 (ff.mul let165 let97)))
  (let ((let359 (ff.add let358 let357 let352)))
  (let ((let360 (ff.mul let359 let280)))
  (let ((let361 (= let360 let164)))
  (let ((let362 (ff.mul let146 let100)))
  (let ((let363 (ff.add let362 let97)))
  (let ((let364 (ff.mul let363 let162)))
  (let ((let365 (= let364 let165)))
  (let ((let366 (ff.add let250 let69)))
  (let ((let367 (ff.mul let366 let344)))
  (let ((let368 (= let367 let146)))
  (let ((let369 (ff.add let324 let69)))
  (let ((let370 (ff.add let260 let97)))
  (let ((let371 (ff.mul let370 let369)))
  (let ((let372 (= let371 let131)))
  (let ((let373 (ff.mul let251 let97)))
  (let ((let374 (ff.mul let373 let247)))
  (let ((let375 (= let374 let347)))
  (let ((let376 (ff.mul let158 let258)))
  (let ((let377 (= let376 let251)))
  (let ((let378 (ff.mul let111 let76)))
  (let ((let379 (ff.add let378 let105 let101)))
  (let ((let380 (ff.add let126 let123 let124)))
  (let ((let381 (ff.mul let380 let379)))
  (let ((let382 (= let381 let98)))
  (let ((let383 (ff.add let106 let97)))
  (let ((let384 (ff.mul let383 let111)))
  (let ((let385 (= let384 let101)))
  (let ((let386 mul_n32))
  (let ((let387 (ff.mul let386 let236)))
  (let ((let388 (= let387 let105)))
  (let ((let389 mul_n31))
  (let ((let390 (ff.mul let389 let258)))
  (let ((let391 (= let390 let386)))
  (let ((let392 mul_n21))
  (let ((let393 (ff.mul let392 let76)))
  (let ((let394 (ff.add let393 let69)))
  (let ((let395 mul_n30))
  (let ((let396 (ff.mul let395 let394)))
  (let ((let397 (= let396 let389)))
  (let ((let398 (ff.add let180 let256 let255)))
  (let ((let399 (ff.mul let398 let258)))
  (let ((let400 (= let399 let395)))
  (let ((let401 (ff.mul let398 let162)))
  (let ((let402 (= let401 let236)))
  (let ((let403 (ff.mul let258 let394)))
  (let ((let404 (= let403 let162)))
  (let ((let405 (ff.add let392 let180 let256 let255 let76)))
  (let ((let406 (ff.mul let111 let405)))
  (let ((let407 (= let406 let182)))
  (let ((let408 (ff.add let180 let185)))
  (let ((let409 (ff.mul let255 let408)))
  (let ((let410 (= let409 let177)))
  (let ((let411 (ff.add let272 let69)))
  (let ((let412 (ff.mul let114 let100)))
  (let ((let413 (ff.add let412 let97)))
  (let ((let414 (ff.mul let413 let411)))
  (let ((let415 (= let414 let246)))
  (let ((let416 (ff.mul let408 let152)))
  (let ((let417 (= let416 let114)))
  (let ((let418 (ff.mul let392 let303)))
  (let ((let419 (= let418 let152)))
  (let ((let420 mul_n20))
  (let ((let421 (ff.mul let420 let240)))
  (let ((let422 (= let421 let392)))
  (let ((let423 mul_n19))
  (let ((let424 (ff.mul let423 let411)))
  (let ((let425 (= let424 let420)))
  (let ((let426 mul_n18))
  (let ((let427 (ff.mul let426 let408)))
  (let ((let428 (= let427 let423)))
  (let ((let429 mul_n17))
  (let ((let430 (ff.mul let429 let337)))
  (let ((let431 (= let430 let426)))
  (let ((let432 mul_n16))
  (let ((let433 (ff.mul let432 let240)))
  (let ((let434 (= let433 let429)))
  (let ((let435 mul_n15))
  (let ((let436 (ff.mul let435 let337)))
  (let ((let437 (= let436 let432)))
  (let ((let438 mul_n14))
  (let ((let439 (ff.mul let438 let408)))
  (let ((let440 (= let439 let435)))
  (let ((let441 c_n1))
  (let ((let442 mul_n13))
  (let ((let443 (ff.mul let442 let441)))
  (let ((let444 (= let443 let438)))
  (let ((let445 mul_n12))
  (let ((let446 (ff.mul let445 let441)))
  (let ((let447 (= let446 let442)))
  (let ((let448 (ff.mul let411 let337)))
  (let ((let449 (= let448 let445)))
  (let ((let450 (ff.mul let111 let303)))
  (let ((let451 (= let450 let316)))
  (let ((let452 (ff.add let302 let240)))
  (let ((let453 (ff.mul let441 let452)))
  (let ((let454 (= let453 let180)))
  (let ((let455 (ff.add let108 let69)))
  (let ((let456 (ff.mul let303 let455)))
  (let ((let457 (= let456 let133)))
  (let ((let458 mul_n6))
  (let ((let459 (ff.mul let458 let107)))
  (let ((let460 (= let459 let240)))
  (let ((let461 mul_n5))
  (let ((let462 (ff.mul let461 let111)))
  (let ((let463 (= let462 let458)))
  (let ((let464 (ff.mul let107 let441)))
  (let ((let465 (= let464 let461)))
  (let ((let466 (and let465 let463 let460 let457 let454 let451 let449 let447 let444 let440 let437 let434 let431 let428 let425 let422 let419 let417 let415 let410 let407 let404 let402 let400 let397 let391 let388 let385 let382 let377 let375 let372 let368 let365 let361 let356 let351 let346 let342 let336 let332 let329 let322 let315 let311 let309 let305 let301 let297 let292 let286 let279 let277 let271 let267 let265 let254 let249 let244 let235 let232 let228 let225 let221 let216 let211 let208 let204 let198 let190 let176 let170 let161 let157 let151 let145 let141 let137 let130 let122 let96 let90 let86 let82)))
  (let ((let467 (ite let0 let69 let72)))
  (let ((let468 (= let107 let467)))
  (let ((let469 (ite let1 let69 let72)))
  (let ((let470 (= let185 let469)))
  (let ((let471 (ite let2 let69 let72)))
  (let ((let472 (= let111 let471)))
  (let ((let473 (ite let3 let69 let72)))
  (let ((let474 (= let441 let473)))
  (let ((let475 (and let474 let472 let470 let468)))
  (let ((let476 (and let475 let466)))
  (let ((let477 (=> let476 let75)))
  (let ((let478 (not let477)))
  let478
)))))))))))))))))))))))))))))))))))))))))))))))))))))))))))))))))))))))))))))))))))))))))))))))))))))))))))))))))))))))))))))))))))))))))))))))))))))))))))))))))))))))))))))))))))))))))))))))))))))))))))))))))))))))))))))))))))))))))))))))))))))))))))))))))))))))))))))))))))))))))))))))))))))))))))))))))))))))))))))))))))))))))))))))))))))))))))))))))))))))))))))))))))))))))))))))))))))))))))))))))))))))))))))))))))))))))))))))))))))))))))))))))))))))))))))))))))))))))))))))
)
(check-sat)
